maximize
obj: -3 _ - 1 __1__5 - 1 __2__5 - 1 __3__5 - 1 __4__5 - 0.5 __1,1_ - 0.5 __1,2_ - 0.5 __1,3_ - 0.5 __1,4_ - 0.5 __2,1_ - 0.5 __2,2_ - 0.5 __2,3_ - 0.5 __2,4_ - 0.5 __3,1_ - 0.5 __3,2_ - 0.5 __3,3_ - 0.5 __3,4_ - 0.5 __4,1_ - 0.5 __4,2_ - 0.5 __4,3_ - 0.5 __4,4_ + [ -2 q0_var_1_ * x_1_ - 2 q0_var_2_ * x_2_ - 2 q0_var_3_ * x_3_ - 2 q0_var_4_ * x_4_ ]/2
subject to
c1_2: -1 q0_var_1_ <= 100
c2_2: -1 q0_var_2_ <= 100
c3_2: -1 q0_var_3_ <= 100
c4_2: -1 q0_var_4_ <= 100
c5_2: 1 q0_var_1_ <= 100
c6_2: 1 q0_var_2_ <= 100
c7_2: 1 q0_var_3_ <= 100
c8_2: 1 q0_var_4_ <= 100
c9_2: 1 u_1_ + 1 u_2_ + 1 u_3_ + 1 u_4_ <= 3
c10_2: 1 u_1_ <= 1
c11_2: 1 u_2_ <= 1
c12_2: 1 u_3_ <= 1
c13_2: 1 u_4_ <= 1
c1_1: 1 X_1,1_ - 2 R_1,1_ + 1 U_1,1_ >= 0
c2_1: 1 X_1,2_ - 1 R_2,1_ - 1 R_1,2_ + 1 U_1,2_ >= 0
c3_1: 1 X_1,3_ - 1 R_3,1_ - 1 R_1,3_ + 1 U_1,3_ >= 0
c4_1: 1 X_1,4_ - 1 R_4,1_ - 1 R_1,4_ + 1 U_1,4_ >= 0
c5_1: 1 X_1,2_ - 1 R_2,1_ - 1 R_1,2_ + 1 U_1,2_ >= 0
c6_1: 1 X_2,2_ - 2 R_2,2_ + 1 U_2,2_ >= 0
c7_1: 1 X_2,3_ - 1 R_3,2_ - 1 R_2,3_ + 1 U_2,3_ >= 0
c8_1: 1 X_2,4_ - 1 R_4,2_ - 1 R_2,4_ + 1 U_2,4_ >= 0
c9_1: 1 X_1,3_ - 1 R_3,1_ - 1 R_1,3_ + 1 U_1,3_ >= 0
c10_1: 1 X_2,3_ - 1 R_3,2_ - 1 R_2,3_ + 1 U_2,3_ >= 0
c11_1: 1 X_3,3_ - 2 R_3,3_ + 1 U_3,3_ >= 0
c12_1: 1 X_3,4_ - 1 R_4,3_ - 1 R_3,4_ + 1 U_3,4_ >= 0
c13_1: 1 X_1,4_ - 1 R_4,1_ - 1 R_1,4_ + 1 U_1,4_ >= 0
c14_1: 1 X_2,4_ - 1 R_4,2_ - 1 R_2,4_ + 1 U_2,4_ >= 0
c15_1: 1 X_3,4_ - 1 R_4,3_ - 1 R_3,4_ + 1 U_3,4_ >= 0
c16_1: 1 X_4,4_ - 2 R_4,4_ + 1 U_4,4_ >= 0
c17_1: 1 X_1,1_ + 2 R_1,1_ + 1 U_1,1_ >= 0
c18_1: 1 X_1,2_ + 1 R_2,1_ + 1 R_1,2_ + 1 U_1,2_ >= 0
c19_1: 1 X_1,3_ + 1 R_3,1_ + 1 R_1,3_ + 1 U_1,3_ >= 0
c20_1: 1 X_1,4_ + 1 R_4,1_ + 1 R_1,4_ + 1 U_1,4_ >= 0
c21_1: 1 X_1,2_ + 1 R_2,1_ + 1 R_1,2_ + 1 U_1,2_ >= 0
c22_1: 1 X_2,2_ + 2 R_2,2_ + 1 U_2,2_ >= 0
c23_1: 1 X_2,3_ + 1 R_3,2_ + 1 R_2,3_ + 1 U_2,3_ >= 0
c24_1: 1 X_2,4_ + 1 R_4,2_ + 1 R_2,4_ + 1 U_2,4_ >= 0
c25_1: 1 X_1,3_ + 1 R_3,1_ + 1 R_1,3_ + 1 U_1,3_ >= 0
c26_1: 1 X_2,3_ + 1 R_3,2_ + 1 R_2,3_ + 1 U_2,3_ >= 0
c27_1: 1 X_3,3_ + 2 R_3,3_ + 1 U_3,3_ >= 0
c28_1: 1 X_3,4_ + 1 R_4,3_ + 1 R_3,4_ + 1 U_3,4_ >= 0
c29_1: 1 X_1,4_ + 1 R_4,1_ + 1 R_1,4_ + 1 U_1,4_ >= 0
c30_1: 1 X_2,4_ + 1 R_4,2_ + 1 R_2,4_ + 1 U_2,4_ >= 0
c31_1: 1 X_3,4_ + 1 R_4,3_ + 1 R_3,4_ + 1 U_3,4_ >= 0
c32_1: 1 X_4,4_ + 2 R_4,4_ + 1 U_4,4_ >= 0
c33_1: -1 X_1,1_ + 1 U_1,1_ >= 0
c34_1: -1 X_1,2_ - 1 R_2,1_ + 1 R_1,2_ + 1 U_1,2_ >= 0
c35_1: -1 X_1,3_ - 1 R_3,1_ + 1 R_1,3_ + 1 U_1,3_ >= 0
c36_1: -1 X_1,4_ - 1 R_4,1_ + 1 R_1,4_ + 1 U_1,4_ >= 0
c37_1: -1 X_1,2_ + 1 R_2,1_ - 1 R_1,2_ + 1 U_1,2_ >= 0
c38_1: -1 X_2,2_ + 1 U_2,2_ >= 0
c39_1: -1 X_2,3_ - 1 R_3,2_ + 1 R_2,3_ + 1 U_2,3_ >= 0
c40_1: -1 X_2,4_ - 1 R_4,2_ + 1 R_2,4_ + 1 U_2,4_ >= 0
c41_1: -1 X_1,3_ + 1 R_3,1_ - 1 R_1,3_ + 1 U_1,3_ >= 0
c42_1: -1 X_2,3_ + 1 R_3,2_ - 1 R_2,3_ + 1 U_2,3_ >= 0
c43_1: -1 X_3,3_ + 1 U_3,3_ >= 0
c44_1: -1 X_3,4_ - 1 R_4,3_ + 1 R_3,4_ + 1 U_3,4_ >= 0
c45_1: -1 X_1,4_ + 1 R_4,1_ - 1 R_1,4_ + 1 U_1,4_ >= 0
c46_1: -1 X_2,4_ + 1 R_4,2_ - 1 R_2,4_ + 1 U_2,4_ >= 0
c47_1: -1 X_3,4_ + 1 R_4,3_ - 1 R_3,4_ + 1 U_3,4_ >= 0
c48_1: -1 X_4,4_ + 1 U_4,4_ >= 0
c49_1: -6 u_1_ - 6 u_2_ - 6 u_3_ - 6 u_4_ + 1 U_1,1_ + 2 U_1,2_ + 1 U_2,2_ + 2 U_1,3_ + 2 U_2,3_ + 1 U_3,3_ + 2 U_1,4_ + 2 U_2,4_ + 2 U_3,4_ + 1 U_4,4_ >= -9
c50_1: -3 x_1_ + 3 u_1_ + 1 R_1,1_ + 1 R_1,2_ + 1 R_1,3_ + 1 R_1,4_ - 1 U_1,1_ - 1 U_1,2_ - 1 U_1,3_ - 1 U_1,4_ >= 0
c51_1: -3 x_2_ + 3 u_2_ + 1 R_2,1_ + 1 R_2,2_ + 1 R_2,3_ + 1 R_2,4_ - 1 U_1,2_ - 1 U_2,2_ - 1 U_2,3_ - 1 U_2,4_ >= 0
c52_1: -3 x_3_ + 3 u_3_ + 1 R_3,1_ + 1 R_3,2_ + 1 R_3,3_ + 1 R_3,4_ - 1 U_1,3_ - 1 U_2,3_ - 1 U_3,3_ - 1 U_3,4_ >= 0
c53_1: -3 x_4_ + 3 u_4_ + 1 R_4,1_ + 1 R_4,2_ + 1 R_4,3_ + 1 R_4,4_ - 1 U_1,4_ - 1 U_2,4_ - 1 U_3,4_ - 1 U_4,4_ >= 0
c54_1: 3 x_1_ + 3 u_1_ - 1 R_1,1_ - 1 R_1,2_ - 1 R_1,3_ - 1 R_1,4_ - 1 U_1,1_ - 1 U_1,2_ - 1 U_1,3_ - 1 U_1,4_ >= 0
c55_1: 3 x_2_ + 3 u_2_ - 1 R_2,1_ - 1 R_2,2_ - 1 R_2,3_ - 1 R_2,4_ - 1 U_1,2_ - 1 U_2,2_ - 1 U_2,3_ - 1 U_2,4_ >= 0
c56_1: 3 x_3_ + 3 u_3_ - 1 R_3,1_ - 1 R_3,2_ - 1 R_3,3_ - 1 R_3,4_ - 1 U_1,3_ - 1 U_2,3_ - 1 U_3,3_ - 1 U_3,4_ >= 0
c57_1: 3 x_4_ + 3 u_4_ - 1 R_4,1_ - 1 R_4,2_ - 1 R_4,3_ - 1 R_4,4_ - 1 U_1,4_ - 1 U_2,4_ - 1 U_3,4_ - 1 U_4,4_ >= 0
c58_1: -2 u_1_ + 1 U_1,1_ >= -1
c59_1: -1 u_1_ - 1 u_2_ + 1 U_1,2_ >= -1
c60_1: -1 u_1_ - 1 u_3_ + 1 U_1,3_ >= -1
c61_1: -1 u_1_ - 1 u_4_ + 1 U_1,4_ >= -1
c62_1: -1 u_1_ - 1 u_2_ + 1 U_1,2_ >= -1
c63_1: -2 u_2_ + 1 U_2,2_ >= -1
c64_1: -1 u_2_ - 1 u_3_ + 1 U_2,3_ >= -1
c65_1: -1 u_2_ - 1 u_4_ + 1 U_2,4_ >= -1
c66_1: -1 u_1_ - 1 u_3_ + 1 U_1,3_ >= -1
c67_1: -1 u_2_ - 1 u_3_ + 1 U_2,3_ >= -1
c68_1: -2 u_3_ + 1 U_3,3_ >= -1
c69_1: -1 u_3_ - 1 u_4_ + 1 U_3,4_ >= -1
c70_1: -1 u_1_ - 1 u_4_ + 1 U_1,4_ >= -1
c71_1: -1 u_2_ - 1 u_4_ + 1 U_2,4_ >= -1
c72_1: -1 u_3_ - 1 u_4_ + 1 U_3,4_ >= -1
c73_1: -2 u_4_ + 1 U_4,4_ >= -1
c74_1: -1 x_1_ + 1 u_1_ + 1 R_1,1_ - 1 U_1,1_ >= 0
c75_1: -1 x_2_ + 1 u_2_ + 1 R_2,1_ - 1 U_1,2_ >= 0
c76_1: -1 x_3_ + 1 u_3_ + 1 R_3,1_ - 1 U_1,3_ >= 0
c77_1: -1 x_4_ + 1 u_4_ + 1 R_4,1_ - 1 U_1,4_ >= 0
c78_1: -1 x_1_ + 1 u_1_ + 1 R_1,2_ - 1 U_1,2_ >= 0
c79_1: -1 x_2_ + 1 u_2_ + 1 R_2,2_ - 1 U_2,2_ >= 0
c80_1: -1 x_3_ + 1 u_3_ + 1 R_3,2_ - 1 U_2,3_ >= 0
c81_1: -1 x_4_ + 1 u_4_ + 1 R_4,2_ - 1 U_2,4_ >= 0
c82_1: -1 x_1_ + 1 u_1_ + 1 R_1,3_ - 1 U_1,3_ >= 0
c83_1: -1 x_2_ + 1 u_2_ + 1 R_2,3_ - 1 U_2,3_ >= 0
c84_1: -1 x_3_ + 1 u_3_ + 1 R_3,3_ - 1 U_3,3_ >= 0
c85_1: -1 x_4_ + 1 u_4_ + 1 R_4,3_ - 1 U_3,4_ >= 0
c86_1: -1 x_1_ + 1 u_1_ + 1 R_1,4_ - 1 U_1,4_ >= 0
c87_1: -1 x_2_ + 1 u_2_ + 1 R_2,4_ - 1 U_2,4_ >= 0
c88_1: -1 x_3_ + 1 u_3_ + 1 R_3,4_ - 1 U_3,4_ >= 0
c89_1: -1 x_4_ + 1 u_4_ + 1 R_4,4_ - 1 U_4,4_ >= 0
c90_1: 1 x_1_ + 1 u_1_ - 1 R_1,1_ - 1 U_1,1_ >= 0
c91_1: 1 x_2_ + 1 u_2_ - 1 R_2,1_ - 1 U_1,2_ >= 0
c92_1: 1 x_3_ + 1 u_3_ - 1 R_3,1_ - 1 U_1,3_ >= 0
c93_1: 1 x_4_ + 1 u_4_ - 1 R_4,1_ - 1 U_1,4_ >= 0
c94_1: 1 x_1_ + 1 u_1_ - 1 R_1,2_ - 1 U_1,2_ >= 0
c95_1: 1 x_2_ + 1 u_2_ - 1 R_2,2_ - 1 U_2,2_ >= 0
c96_1: 1 x_3_ + 1 u_3_ - 1 R_3,2_ - 1 U_2,3_ >= 0
c97_1: 1 x_4_ + 1 u_4_ - 1 R_4,2_ - 1 U_2,4_ >= 0
c98_1: 1 x_1_ + 1 u_1_ - 1 R_1,3_ - 1 U_1,3_ >= 0
c99_1: 1 x_2_ + 1 u_2_ - 1 R_2,3_ - 1 U_2,3_ >= 0
c100_1: 1 x_3_ + 1 u_3_ - 1 R_3,3_ - 1 U_3,3_ >= 0
c101_1: 1 x_4_ + 1 u_4_ - 1 R_4,3_ - 1 U_3,4_ >= 0
c102_1: 1 x_1_ + 1 u_1_ - 1 R_1,4_ - 1 U_1,4_ >= 0
c103_1: 1 x_2_ + 1 u_2_ - 1 R_2,4_ - 1 U_2,4_ >= 0
c104_1: 1 x_3_ + 1 u_3_ - 1 R_3,4_ - 1 U_3,4_ >= 0
c105_1: 1 x_4_ + 1 u_4_ - 1 R_4,4_ - 1 U_4,4_ >= 0
c106_1: -4 u_1_ - 1 u_2_ - 1 u_3_ - 1 u_4_ + 1 U_1,1_ + 1 U_1,2_ + 1 U_1,3_ + 1 U_1,4_ >= -3
c107_1: -1 u_1_ - 4 u_2_ - 1 u_3_ - 1 u_4_ + 1 U_1,2_ + 1 U_2,2_ + 1 U_2,3_ + 1 U_2,4_ >= -3
c108_1: -1 u_1_ - 1 u_2_ - 4 u_3_ - 1 u_4_ + 1 U_1,3_ + 1 U_2,3_ + 1 U_3,3_ + 1 U_3,4_ >= -3
c109: -1 u_1_ - 1 u_2_ - 1 u_3_ - 4 u_4_ + 1 U_1,4_ + 1 U_2,4_ + 1 U_3,4_ + 1 U_4,4_ >= -3
c1: -1 u_1_ + 1 U_1,1_ = 0
c2: -1 u_2_ + 1 U_2,2_ = 0
c3: -1 u_3_ + 1 U_3,3_ = 0
c4: -1 u_4_ + 1 U_4,4_ = 0
c5:  = 0
c6: 1 _UU_2,1_ - 1 _UU_1,2_ = 0
c7: 1 _UU_3,1_ - 1 _UU_1,3_ = 0
c8: 1 _UU_4,1_ - 1 _UU_1,4_ = 0
c9: -1 _UU_2,1_ + 1 _UU_1,2_ = 0
c10:  = 0
c11: 1 _UU_3,2_ - 1 _UU_2,3_ = 0
c12: 1 _UU_4,2_ - 1 _UU_2,4_ = 0
c13: -1 _UU_3,1_ + 1 _UU_1,3_ = 0
c14: -1 _UU_3,2_ + 1 _UU_2,3_ = 0
c15:  = 0
c16: 1 _UU_4,3_ - 1 _UU_3,4_ = 0
c17: -1 _UU_4,1_ + 1 _UU_1,4_ = 0
c18: -1 _UU_4,2_ + 1 _UU_2,4_ = 0
c19: -1 _UU_4,3_ + 1 _UU_3,4_ = 0
c20:  = 0
c21:  = 0
c22: 1 _LL_2,1_ - 1 _LL_1,2_ = 0
c23: 1 _LL_3,1_ - 1 _LL_1,3_ = 0
c24: 1 _LL_4,1_ - 1 _LL_1,4_ = 0
c25: -1 _LL_2,1_ + 1 _LL_1,2_ = 0
c26:  = 0
c27: 1 _LL_3,2_ - 1 _LL_2,3_ = 0
c28: 1 _LL_4,2_ - 1 _LL_2,4_ = 0
c29: -1 _LL_3,1_ + 1 _LL_1,3_ = 0
c30: -1 _LL_3,2_ + 1 _LL_2,3_ = 0
c31:  = 0
c32: 1 _LL_4,3_ - 1 _LL_3,4_ = 0
c33: -1 _LL_4,1_ + 1 _LL_1,4_ = 0
c34: -1 _LL_4,2_ + 1 _LL_2,4_ = 0
c35: -1 _LL_4,3_ + 1 _LL_3,4_ = 0
c36:  = 0
c37:  = 0
c38: 1 __2,1_ - 1 __1,2_ = 0
c39: 1 __3,1_ - 1 __1,3_ = 0
c40: 1 __4,1_ - 1 __1,4_ = 0
c41: -1 __2,1_ + 1 __1,2_ = 0
c42:  = 0
c43: 1 __3,2_ - 1 __2,3_ = 0
c44: 1 __4,2_ - 1 __2,4_ = 0
c45: -1 __3,1_ + 1 __1,3_ = 0
c46: -1 __3,2_ + 1 __2,3_ = 0
c47:  = 0
c48: 1 __4,3_ - 1 __3,4_ = 0
c49: -1 __4,1_ + 1 __1,4_ = 0
c50: -1 __4,2_ + 1 __2,4_ = 0
c51: -1 __4,3_ + 1 __3,4_ = 0
c52:  = 0
c53: 1 q0_var_1_ + 1 __1_ - 1 __1__1 - 3 __1__3 + 1 _p_1,1_ + 1 _p_1,2_ + 1 _p_1,3_ + 1 _p_1,4_ - 1 _m_1,1_ - 1 _m_1,2_ - 1 _m_1,3_ - 1 _m_1,4_ = 0
c54: 1 q0_var_2_ + 1 __2_ - 1 __2__1 - 3 __2__3 + 1 _p_2,1_ + 1 _p_2,2_ + 1 _p_2,3_ + 1 _p_2,4_ - 1 _m_2,1_ - 1 _m_2,2_ - 1 _m_2,3_ - 1 _m_2,4_ = 0
c55: 1 q0_var_3_ + 1 __3_ - 1 __3__1 - 3 __3__3 + 1 _p_3,1_ + 1 _p_3,2_ + 1 _p_3,3_ + 1 _p_3,4_ - 1 _m_3,1_ - 1 _m_3,2_ - 1 _m_3,3_ - 1 _m_3,4_ = 0
c56: 1 q0_var_4_ + 1 __4_ - 1 __4__1 - 3 __4__3 + 1 _p_4,1_ + 1 _p_4,2_ + 1 _p_4,3_ + 1 _p_4,4_ - 1 _m_4,1_ - 1 _m_4,2_ - 1 _m_4,3_ - 1 _m_4,4_ = 0
c57: 1 _UU_1,1_ + 1 _LL_1,1_ - 2 _UL_1,1_ = 0
c58: 1 _UU_2,1_ + 1 _LL_2,1_ - 1 _UL_2,1_ - 1 _UL_1,2_ = 0
c59: 1 _UU_3,1_ + 1 _LL_3,1_ - 1 _UL_3,1_ - 1 _UL_1,3_ = 0
c60: 1 _UU_4,1_ + 1 _LL_4,1_ - 1 _UL_4,1_ - 1 _UL_1,4_ = 0
c61: 1 _UU_1,2_ + 1 _LL_1,2_ - 1 _UL_2,1_ - 1 _UL_1,2_ = 0
c62: 1 _UU_2,2_ + 1 _LL_2,2_ - 2 _UL_2,2_ = 0
c63: 1 _UU_3,2_ + 1 _LL_3,2_ - 1 _UL_3,2_ - 1 _UL_2,3_ = 0
c64: 1 _UU_4,2_ + 1 _LL_4,2_ - 1 _UL_4,2_ - 1 _UL_2,4_ = 0
c65: 1 _UU_1,3_ + 1 _LL_1,3_ - 1 _UL_3,1_ - 1 _UL_1,3_ = 0
c66: 1 _UU_2,3_ + 1 _LL_2,3_ - 1 _UL_3,2_ - 1 _UL_2,3_ = 0
c67: 1 _UU_3,3_ + 1 _LL_3,3_ - 2 _UL_3,3_ = 0
c68: 1 _UU_4,3_ + 1 _LL_4,3_ - 1 _UL_4,3_ - 1 _UL_3,4_ = 0
c69: 1 _UU_1,4_ + 1 _LL_1,4_ - 1 _UL_4,1_ - 1 _UL_1,4_ = 0
c70: 1 _UU_2,4_ + 1 _LL_2,4_ - 1 _UL_4,2_ - 1 _UL_2,4_ = 0
c71: 1 _UU_3,4_ + 1 _LL_3,4_ - 1 _UL_4,3_ - 1 _UL_3,4_ = 0
c72: 1 _UU_4,4_ + 1 _LL_4,4_ - 2 _UL_4,4_ = 0
c73: -1 __1_ - 1 __1__1 + 1 _ - 1 __1__2 - 3 __1__4 + 1 __1__5 + 1 __1,1_ + 1 __1,2_ + 1 __1,3_ + 1 __1,4_ - 1 _p_1,1_ - 1 _p_1,2_ - 1 _p_1,3_ - 1 _p_1,4_ - 1 _m_1,1_ - 1 _m_1,2_ - 1 _m_1,3_ - 1 _m_1,4_ = 0
c74: -1 __2_ - 1 __2__1 + 1 _ - 1 __2__2 - 3 __2__4 + 1 __2__5 + 1 __2,1_ + 1 __2,2_ + 1 __2,3_ + 1 __2,4_ - 1 _p_2,1_ - 1 _p_2,2_ - 1 _p_2,3_ - 1 _p_2,4_ - 1 _m_2,1_ - 1 _m_2,2_ - 1 _m_2,3_ - 1 _m_2,4_ = 0
c75: -1 __3_ - 1 __3__1 + 1 _ - 1 __3__2 - 3 __3__4 + 1 __3__5 + 1 __3,1_ + 1 __3,2_ + 1 __3,3_ + 1 __3,4_ - 1 _p_3,1_ - 1 _p_3,2_ - 1 _p_3,3_ - 1 _p_3,4_ - 1 _m_3,1_ - 1 _m_3,2_ - 1 _m_3,3_ - 1 _m_3,4_ = 0
c76: -1 __4_ - 1 __4__1 + 1 _ - 1 __4__2 - 3 __4__4 + 1 __4__5 + 1 __4,1_ + 1 __4,2_ + 1 __4,3_ + 1 __4,4_ - 1 _p_4,1_ - 1 _p_4,2_ - 1 _p_4,3_ - 1 _p_4,4_ - 1 _m_4,1_ - 1 _m_4,2_ - 1 _m_4,3_ - 1 _m_4,4_ = 0
c77: 1 _UU_1,1_ - 1 _LL_1,1_ + 1 __1__3 - 1 _p_1,1_ + 1 _m_1,1_ = 0
c78: 1 _UU_2,1_ - 1 _LL_2,1_ + 1 _UL_2,1_ - 1 _UL_1,2_ + 1 __2__3 - 1 _p_2,1_ + 1 _m_2,1_ = 0
c79: 1 _UU_3,1_ - 1 _LL_3,1_ + 1 _UL_3,1_ - 1 _UL_1,3_ + 1 __3__3 - 1 _p_3,1_ + 1 _m_3,1_ = 0
c80: 1 _UU_4,1_ - 1 _LL_4,1_ + 1 _UL_4,1_ - 1 _UL_1,4_ + 1 __4__3 - 1 _p_4,1_ + 1 _m_4,1_ = 0
c81: 1 _UU_1,2_ - 1 _LL_1,2_ - 1 _UL_2,1_ + 1 _UL_1,2_ + 1 __1__3 - 1 _p_1,2_ + 1 _m_1,2_ = 0
c82: 1 _UU_2,2_ - 1 _LL_2,2_ + 1 __2__3 - 1 _p_2,2_ + 1 _m_2,2_ = 0
c83: 1 _UU_3,2_ - 1 _LL_3,2_ + 1 _UL_3,2_ - 1 _UL_2,3_ + 1 __3__3 - 1 _p_3,2_ + 1 _m_3,2_ = 0
c84: 1 _UU_4,2_ - 1 _LL_4,2_ + 1 _UL_4,2_ - 1 _UL_2,4_ + 1 __4__3 - 1 _p_4,2_ + 1 _m_4,2_ = 0
c85: 1 _UU_1,3_ - 1 _LL_1,3_ - 1 _UL_3,1_ + 1 _UL_1,3_ + 1 __1__3 - 1 _p_1,3_ + 1 _m_1,3_ = 0
c86: 1 _UU_2,3_ - 1 _LL_2,3_ - 1 _UL_3,2_ + 1 _UL_2,3_ + 1 __2__3 - 1 _p_2,3_ + 1 _m_2,3_ = 0
c87: 1 _UU_3,3_ - 1 _LL_3,3_ + 1 __3__3 - 1 _p_3,3_ + 1 _m_3,3_ = 0
c88: 1 _UU_4,3_ - 1 _LL_4,3_ + 1 _UL_4,3_ - 1 _UL_3,4_ + 1 __4__3 - 1 _p_4,3_ + 1 _m_4,3_ = 0
c89: 1 _UU_1,4_ - 1 _LL_1,4_ - 1 _UL_4,1_ + 1 _UL_1,4_ + 1 __1__3 - 1 _p_1,4_ + 1 _m_1,4_ = 0
c90: 1 _UU_2,4_ - 1 _LL_2,4_ - 1 _UL_4,2_ + 1 _UL_2,4_ + 1 __2__3 - 1 _p_2,4_ + 1 _m_2,4_ = 0
c91: 1 _UU_3,4_ - 1 _LL_3,4_ - 1 _UL_4,3_ + 1 _UL_3,4_ + 1 __3__3 - 1 _p_3,4_ + 1 _m_3,4_ = 0
c92: 1 _UU_4,4_ - 1 _LL_4,4_ + 1 __4__3 - 1 _p_4,4_ + 1 _m_4,4_ = 0
c93: 1 __1__2 - 0.5 _UU_1,1_ - 0.5 _LL_1,1_ - 1 _UL_1,1_ + 1 __1__4 - 0.5 __1,1_ + 1 _p_1,1_ + 1 _m_1,1_ = 0
c94: -0.5 _UU_2,1_ - 0.5 _LL_2,1_ - 0.5 _UL_2,1_ - 0.5 _UL_1,2_ + 0.5 __1__4 + 0.5 __2__4 - 0.5 __2,1_ + 0.5 _p_2,1_ + 0.5 _p_1,2_ + 0.5 _m_2,1_ + 0.5 _m_1,2_ = 0
c95: -0.5 _UU_3,1_ - 0.5 _LL_3,1_ - 0.5 _UL_3,1_ - 0.5 _UL_1,3_ + 0.5 __1__4 + 0.5 __3__4 - 0.5 __3,1_ + 0.5 _p_3,1_ + 0.5 _p_1,3_ + 0.5 _m_3,1_ + 0.5 _m_1,3_ = 0
c96: -0.5 _UU_4,1_ - 0.5 _LL_4,1_ - 0.5 _UL_4,1_ - 0.5 _UL_1,4_ + 0.5 __1__4 + 0.5 __4__4 - 0.5 __4,1_ + 0.5 _p_4,1_ + 0.5 _p_1,4_ + 0.5 _m_4,1_ + 0.5 _m_1,4_ = 0
c97: -0.5 _UU_1,2_ - 0.5 _LL_1,2_ - 0.5 _UL_2,1_ - 0.5 _UL_1,2_ + 0.5 __1__4 + 0.5 __2__4 - 0.5 __1,2_ + 0.5 _p_2,1_ + 0.5 _p_1,2_ + 0.5 _m_2,1_ + 0.5 _m_1,2_ = 0
c98: 1 __2__2 - 0.5 _UU_2,2_ - 0.5 _LL_2,2_ - 1 _UL_2,2_ + 1 __2__4 - 0.5 __2,2_ + 1 _p_2,2_ + 1 _m_2,2_ = 0
c99: -0.5 _UU_3,2_ - 0.5 _LL_3,2_ - 0.5 _UL_3,2_ - 0.5 _UL_2,3_ + 0.5 __2__4 + 0.5 __3__4 - 0.5 __3,2_ + 0.5 _p_3,2_ + 0.5 _p_2,3_ + 0.5 _m_3,2_ + 0.5 _m_2,3_ = 0
c100: -0.5 _UU_4,2_ - 0.5 _LL_4,2_ - 0.5 _UL_4,2_ - 0.5 _UL_2,4_ + 0.5 __2__4 + 0.5 __4__4 - 0.5 __4,2_ + 0.5 _p_4,2_ + 0.5 _p_2,4_ + 0.5 _m_4,2_ + 0.5 _m_2,4_ = 0
c101: -0.5 _UU_1,3_ - 0.5 _LL_1,3_ - 0.5 _UL_3,1_ - 0.5 _UL_1,3_ + 0.5 __1__4 + 0.5 __3__4 - 0.5 __1,3_ + 0.5 _p_3,1_ + 0.5 _p_1,3_ + 0.5 _m_3,1_ + 0.5 _m_1,3_ = 0
c102: -0.5 _UU_2,3_ - 0.5 _LL_2,3_ - 0.5 _UL_3,2_ - 0.5 _UL_2,3_ + 0.5 __2__4 + 0.5 __3__4 - 0.5 __2,3_ + 0.5 _p_3,2_ + 0.5 _p_2,3_ + 0.5 _m_3,2_ + 0.5 _m_2,3_ = 0
c103: 1 __3__2 - 0.5 _UU_3,3_ - 0.5 _LL_3,3_ - 1 _UL_3,3_ + 1 __3__4 - 0.5 __3,3_ + 1 _p_3,3_ + 1 _m_3,3_ = 0
c104: -0.5 _UU_4,3_ - 0.5 _LL_4,3_ - 0.5 _UL_4,3_ - 0.5 _UL_3,4_ + 0.5 __3__4 + 0.5 __4__4 - 0.5 __4,3_ + 0.5 _p_4,3_ + 0.5 _p_3,4_ + 0.5 _m_4,3_ + 0.5 _m_3,4_ = 0
c105: -0.5 _UU_1,4_ - 0.5 _LL_1,4_ - 0.5 _UL_4,1_ - 0.5 _UL_1,4_ + 0.5 __1__4 + 0.5 __4__4 - 0.5 __1,4_ + 0.5 _p_4,1_ + 0.5 _p_1,4_ + 0.5 _m_4,1_ + 0.5 _m_1,4_ = 0
c106: -0.5 _UU_2,4_ - 0.5 _LL_2,4_ - 0.5 _UL_4,2_ - 0.5 _UL_2,4_ + 0.5 __2__4 + 0.5 __4__4 - 0.5 __2,4_ + 0.5 _p_4,2_ + 0.5 _p_2,4_ + 0.5 _m_4,2_ + 0.5 _m_2,4_ = 0
c107: -0.5 _UU_3,4_ - 0.5 _LL_3,4_ - 0.5 _UL_4,3_ - 0.5 _UL_3,4_ + 0.5 __3__4 + 0.5 __4__4 - 0.5 __3,4_ + 0.5 _p_4,3_ + 0.5 _p_3,4_ + 0.5 _m_4,3_ + 0.5 _m_3,4_ = 0
c108: 1 __4__2 - 0.5 _UU_4,4_ - 0.5 _LL_4,4_ - 1 _UL_4,4_ + 1 __4__4 - 0.5 __4,4_ + 1 _p_4,4_ + 1 _m_4,4_ = 0
Bounds
q0_var_1_ free
q0_var_2_ free
q0_var_3_ free
q0_var_4_ free
x_1_ free
x_2_ free
x_3_ free
x_4_ free
u_1_ free
u_2_ free
u_3_ free
u_4_ free
X_1,1_ free
X_1,2_ free
X_2,2_ free
X_1,3_ free
X_2,3_ free
X_3,3_ free
X_1,4_ free
X_2,4_ free
X_3,4_ free
X_4,4_ free
R_1,1_ free
R_2,1_ free
R_3,1_ free
R_4,1_ free
R_1,2_ free
R_2,2_ free
R_3,2_ free
R_4,2_ free
R_1,3_ free
R_2,3_ free
R_3,3_ free
R_4,3_ free
R_1,4_ free
R_2,4_ free
R_3,4_ free
R_4,4_ free
U_1,1_ free
U_1,2_ free
U_2,2_ free
U_1,3_ free
U_2,3_ free
U_3,3_ free
U_1,4_ free
U_2,4_ free
U_3,4_ free
U_4,4_ free
__1_ >= 0
__2_ >= 0
__3_ >= 0
__4_ >= 0
__1__1 >= 0
__2__1 >= 0
__3__1 >= 0
__4__1 >= 0
_ free
__1__2 free
__2__2 free
__3__2 free
__4__2 free
_UU_1,1_ >= 0
_UU_2,1_ >= 0
_UU_3,1_ >= 0
_UU_4,1_ >= 0
_UU_1,2_ >= 0
_UU_2,2_ >= 0
_UU_3,2_ >= 0
_UU_4,2_ >= 0
_UU_1,3_ >= 0
_UU_2,3_ >= 0
_UU_3,3_ >= 0
_UU_4,3_ >= 0
_UU_1,4_ >= 0
_UU_2,4_ >= 0
_UU_3,4_ >= 0
_UU_4,4_ >= 0
_LL_1,1_ >= 0
_LL_2,1_ >= 0
_LL_3,1_ >= 0
_LL_4,1_ >= 0
_LL_1,2_ >= 0
_LL_2,2_ >= 0
_LL_3,2_ >= 0
_LL_4,2_ >= 0
_LL_1,3_ >= 0
_LL_2,3_ >= 0
_LL_3,3_ >= 0
_LL_4,3_ >= 0
_LL_1,4_ >= 0
_LL_2,4_ >= 0
_LL_3,4_ >= 0
_LL_4,4_ >= 0
_UL_1,1_ >= 0
_UL_2,1_ >= 0
_UL_3,1_ >= 0
_UL_4,1_ >= 0
_UL_1,2_ >= 0
_UL_2,2_ >= 0
_UL_3,2_ >= 0
_UL_4,2_ >= 0
_UL_1,3_ >= 0
_UL_2,3_ >= 0
_UL_3,3_ >= 0
_UL_4,3_ >= 0
_UL_1,4_ >= 0
_UL_2,4_ >= 0
_UL_3,4_ >= 0
_UL_4,4_ >= 0
__1__3 free
__2__3 free
__3__3 free
__4__3 free
__1__4 free
__2__4 free
__3__4 free
__4__4 free
__1__5 >= 0
__2__5 >= 0
__3__5 >= 0
__4__5 >= 0
__1,1_ >= 0
__2,1_ >= 0
__3,1_ >= 0
__4,1_ >= 0
__1,2_ >= 0
__2,2_ >= 0
__3,2_ >= 0
__4,2_ >= 0
__1,3_ >= 0
__2,3_ >= 0
__3,3_ >= 0
__4,3_ >= 0
__1,4_ >= 0
__2,4_ >= 0
__3,4_ >= 0
__4,4_ >= 0
_p_1,1_ >= 0
_p_2,1_ >= 0
_p_3,1_ >= 0
_p_4,1_ >= 0
_p_1,2_ >= 0
_p_2,2_ >= 0
_p_3,2_ >= 0
_p_4,2_ >= 0
_p_1,3_ >= 0
_p_2,3_ >= 0
_p_3,3_ >= 0
_p_4,3_ >= 0
_p_1,4_ >= 0
_p_2,4_ >= 0
_p_3,4_ >= 0
_p_4,4_ >= 0
_m_1,1_ >= 0
_m_2,1_ >= 0
_m_3,1_ >= 0
_m_4,1_ >= 0
_m_1,2_ >= 0
_m_2,2_ >= 0
_m_3,2_ >= 0
_m_4,2_ >= 0
_m_1,3_ >= 0
_m_2,3_ >= 0
_m_3,3_ >= 0
_m_4,3_ >= 0
_m_1,4_ >= 0
_m_2,4_ >= 0
_m_3,4_ >= 0
_m_4,4_ >= 0
End
